loop__main__1422:
(set-info :source |printed by MathSAT|)
(assert true)
loop__main__1450:
(set-info :source |printed by MathSAT|)
(assert true)
loop__main__1454:
(set-info :source |printed by MathSAT|)
(assert true)
